(set-logic QF_S)
(declare-fun var0 () String)
(declare-fun var1 () String)
(declare-fun var2 () Int)
(declare-fun var3 () Int)
(declare-fun var4 () String)
(declare-fun var5 () Int)
(declare-fun var6 () Int)
(declare-fun var7 () String)
(assert (> (str.len var0) (str.len var1)))
(assert (< var2 var3))
(assert (str.suffixof (str.substr var4 var5 var6) (str.at var7 var2)))
(assert (str.prefixof (str.at var4 var3) (str.substr var7 58 var2)))
(check-sat)